30
1 0 113
2 0 63
2 1 34
3 0 107
3 1 110
3 2 118
4 0 110
4 1 19
4 2 99
4 3 65
5 0 134
5 1 11
5 2 123
5 3 104
5 4 64
6 0 75
6 1 66
6 2 12
6 3 65
6 4 36
6 5 59
7 0 38
7 1 86
7 2 138
7 3 56
7 4 94
7 5 141
7 6 96
8 0 106
8 1 8
8 2 34
8 3 83
8 4 140
8 5 102
8 6 2
8 7 16
9 0 58
9 1 156
9 2 143
9 3 71
9 4 159
9 5 95
9 6 16
9 7 116
9 8 43
10 0 46
10 1 36
10 2 132
10 3 107
10 4 9
10 5 68
10 6 36
10 7 20
10 8 46
10 9 108
11 0 85
11 1 118
11 2 40
11 3 132
11 4 32
11 5 40
11 6 12
11 7 100
11 8 68
11 9 138
11 10 118
12 0 139
12 1 26
12 2 64
12 3 129
12 4 54
12 5 131
12 6 153
12 7 146
12 8 38
12 9 8
12 10 69
12 11 23
13 0 49
13 1 106
13 2 110
13 3 150
13 4 115
13 5 110
13 6 35
13 7 29
13 8 84
13 9 149
13 10 77
13 11 66
13 12 51
14 0 117
14 1 59
14 2 86
14 3 23
14 4 112
14 5 80
14 6 65
14 7 15
14 8 88
14 9 25
14 10 1
14 11 158
14 12 77
14 13 33
15 0 57
15 1 7
15 2 91
15 3 43
15 4 36
15 5 84
15 6 33
15 7 148
15 8 39
15 9 113
15 10 89
15 11 130
15 12 8
15 13 111
15 14 73
16 0 140
16 1 102
16 2 141
16 3 64
16 4 12
16 5 142
16 6 21
16 7 61
16 8 52
16 9 9
16 10 154
16 11 131
16 12 91
16 13 111
16 14 46
16 15 132
17 0 23
17 1 29
17 2 78
17 3 83
17 4 136
17 5 2
17 6 153
17 7 27
17 8 76
17 9 57
17 10 43
17 11 54
17 12 94
17 13 99
17 14 111
17 15 59
17 16 141
18 0 157
18 1 111
18 2 132
18 3 66
18 4 35
18 5 96
18 6 117
18 7 79
18 8 29
18 9 106
18 10 125
18 11 8
18 12 123
18 13 8
18 14 132
18 15 118
18 16 55
18 17 109
19 0 41
19 1 30
19 2 133
19 3 125
19 4 31
19 5 4
19 6 157
19 7 98
19 8 83
19 9 105
19 10 88
19 11 138
19 12 33
19 13 155
19 14 64
19 15 80
19 16 73
19 17 55
19 18 112
20 0 19
20 1 100
20 2 108
20 3 122
20 4 23
20 5 150
20 6 62
20 7 45
20 8 61
20 9 68
20 10 75
20 11 142
20 12 118
20 13 108
20 14 24
20 15 45
20 16 28
20 17 41
20 18 114
20 19 77
21 0 29
21 1 154
21 2 75
21 3 143
21 4 46
21 5 26
21 6 14
21 7 22
21 8 84
21 9 154
21 10 100
21 11 154
21 12 115
21 13 157
21 14 155
21 15 109
21 16 15
21 17 139
21 18 105
21 19 140
21 20 91
22 0 152
22 1 33
22 2 57
22 3 113
22 4 93
22 5 60
22 6 102
22 7 41
22 8 9
22 9 9
22 10 57
22 11 94
22 12 49
22 13 113
22 14 76
22 15 110
22 16 87
22 17 84
22 18 22
22 19 58
22 20 105
22 21 120
23 0 85
23 1 128
23 2 22
23 3 127
23 4 20
23 5 123
23 6 100
23 7 22
23 8 25
23 9 158
23 10 82
23 11 22
23 12 34
23 13 75
23 14 20
23 15 28
23 16 43
23 17 149
23 18 70
23 19 140
23 20 95
23 21 80
23 22 62
24 0 34
24 1 47
24 2 54
24 3 20
24 4 133
24 5 74
24 6 145
24 7 141
24 8 131
24 9 33
24 10 6
24 11 45
24 12 131
24 13 160
24 14 156
24 15 28
24 16 33
24 17 20
24 18 5
24 19 67
24 20 105
24 21 33
24 22 103
24 23 34
25 0 69
25 1 2
25 2 138
25 3 126
25 4 25
25 5 16
25 6 89
25 7 101
25 8 141
25 9 152
25 10 153
25 11 94
25 12 116
25 13 109
25 14 37
25 15 71
25 16 77
25 17 77
25 18 45
25 19 137
25 20 137
25 21 50
25 22 144
25 23 121
25 24 39
26 0 93
26 1 157
26 2 91
26 3 44
26 4 133
26 5 80
26 6 142
26 7 83
26 8 99
26 9 53
26 10 70
26 11 1
26 12 16
26 13 42
26 14 74
26 15 88
26 16 6
26 17 101
26 18 147
26 19 159
26 20 48
26 21 83
26 22 158
26 23 129
26 24 153
26 25 77
27 0 153
27 1 122
27 2 97
27 3 15
27 4 55
27 5 87
27 6 82
27 7 153
27 8 142
27 9 88
27 10 111
27 11 136
27 12 121
27 13 31
27 14 22
27 15 27
27 16 14
27 17 83
27 18 88
27 19 144
27 20 118
27 21 152
27 22 88
27 23 115
27 24 129
27 25 67
27 26 21
28 0 153
28 1 69
28 2 35
28 3 116
28 4 91
28 5 115
28 6 56
28 7 57
28 8 50
28 9 160
28 10 37
28 11 83
28 12 124
28 13 110
28 14 152
28 15 151
28 16 156
28 17 63
28 18 81
28 19 50
28 20 102
28 21 32
28 22 111
28 23 87
28 24 70
28 25 15
28 26 91
28 27 47
29 0 118
29 1 10
29 2 105
29 3 118
29 4 101
29 5 55
29 6 61
29 7 128
29 8 60
29 9 125
29 10 47
29 11 58
29 12 73
29 13 51
29 14 21
29 15 34
29 16 142
29 17 18
29 18 127
29 19 103
29 20 82
29 21 117
29 22 116
29 23 1
29 24 59
29 25 64
29 26 59
29 27 111
29 28 71
